<instance format="XCSP3" type="CSP">
  <variables>
    <var id="x0"> 3 4 6 9 12 </var>
    <var id="x1"> 3 4 10 12 </var>
    <var id="x2"> 3 4 9 12 </var>
    <var id="x3"> 9 10 </var>
    <var id="x4"> 11 </var>
    <var id="x5"> 3 4 6 10 </var>
    <var id="x6"> 3 12 </var>
    <var id="x7"> 0 12 </var>
    <var id="x8"> 0 8 10 12 13 </var>
    <var id="x9"> 1 8 10 13 </var>
    <var id="x10"> 0 8 12 </var>
    <var id="x11"> 7 8 </var>
    <var id="x12"> 0 7 10 13 </var>
    <var id="x13"> 0 8 10 13 </var>
    <var id="x14"> 0 12 14 </var>
    <var id="x15"> 0 4 12 </var>
    <var id="x16"> 1 4 5 13 14 </var>
    <var id="x17"> 0 1 13 </var>
    <var id="x18"> 0 1 5 </var>
    <var id="x19"> 0 5 13 </var>
    <var id="x20"> 0 1 5 12 </var>
    <var id="x21"> 0 2 3 9 </var>
    <var id="x22"> 1 5 13 </var>
    <var id="x23"> 0 3 5 9 </var>
    <var id="x24"> 3 7 9 </var>
    <var id="x25"> 0 3 5 13 </var>
    <var id="x26"> 0..3 </var>
    <var id="x27"> 0 3 7 </var>
    <var id="x28"> 0..3 5 </var>
    <var id="x29"> 0 3 6 10 12 </var>
    <var id="x30"> 8 10 </var>
    <var id="x31"> 0 2 3 8 12 </var>
    <var id="x32"> 0 2 10 </var>
    <var id="x33"> 3 6 8 </var>
    <var id="x34"> 0 2 10 </var>
    <var id="x35"> 0 3 6 12 </var>
    <var id="x36"> 0 3 12 14 </var>
    <var id="x37"> 3 8 12 13 </var>
    <var id="x38"> 0 3 8 12 13 </var>
    <var id="x39"> 0 8 11 </var>
    <var id="x40"> 3 8 14 </var>
    <var id="x41"> 0 11 13 </var>
    <var id="x42"> 0 3 12 14 </var>
    <var id="x43"> 0 4 8 10 12 </var>
    <var id="x44"> 0 2 4 8 12 </var>
    <var id="x45"> 4 8 14 </var>
    <var id="x46"> 0 2 10 </var>
    <var id="x47"> 0 8 10 </var>
    <var id="x48"> 0 4 12 14 </var>
    <var id="x49"> 0 2 8 12 </var>
    <var id="x50"> 0 2 3 9 </var>
    <var id="x51"> 3 8..10 </var>
    <var id="x52"> 0 2 7 8 </var>
    <var id="x53"> 0 2 7 9 10 </var>
    <var id="x54"> 0 3 8 10 </var>
    <var id="x55"> 0 2 3 10 </var>
    <var id="x56"> 0 3 7 </var>
    <var id="x57"> 3 6 9 </var>
    <var id="x58"> 3 4 8 9 </var>
    <var id="x59"> 3 4 8 13 </var>
    <var id="x60"> 1 9 13 </var>
    <var id="x61"> 3 4 6 8 9 </var>
    <var id="x62"> 1 3 4 6 </var>
    <var id="x63"> 3 4 6 </var>
    <var id="x64"> 3 7 9 </var>
    <var id="x65"> 2 3 9 </var>
    <var id="x66"> 3 8 13 </var>
    <var id="x67"> 5 8 13 </var>
    <var id="x68"> 2 3 8 13 </var>
    <var id="x69"> 2 7 9 13 </var>
    <var id="x70"> 2 3 5 8 </var>
    <var id="x71"> 0 3 6 14 </var>
    <var id="x72"> 4 5 14 </var>
    <var id="x73"> 3 4 </var>
    <var id="x74"> 0 3..5 </var>
    <var id="x75"> 0 2 5 </var>
    <var id="x76"> 0 2..4 6 </var>
    <var id="x77"> 0 2 3 5 </var>
    <var id="x78"> 0 4 8 12 </var>
    <var id="x79"> 4 8 12 </var>
    <var id="x80"> 0 4 5 8 12 </var>
    <var id="x81"> 0 7 </var>
    <var id="x82"> 0 5 6 8 </var>
    <var id="x83"> 0 4 6 </var>
    <var id="x84"> 0 5 8 12 </var>
    <var id="x85"> 0 3 4 6 </var>
    <var id="x86"> 0 3 4 8 10 </var>
    <var id="x87"> 3 4 8 10 </var>
    <var id="x88"> 0 3 4 8 </var>
    <var id="x89"> 0 7 10 </var>
    <var id="x90"> 3 4 6..8 </var>
    <var id="x91"> 0 3 6 8 10 </var>
    <var id="x92"> 0 3 9 10 12 </var>
    <var id="x93"> 0 3 4 10 12 </var>
    <var id="x94"> 4 10 </var>
    <var id="x95"> 3 4 9 10 12 </var>
    <var id="x96"> 0 2..4 12 </var>
    <var id="x97"> 0 2 </var>
    <var id="x98"> 0 3 4 12 </var>
    <var id="x99"> 0 3 9 10 </var>
    <var id="x100"> 3 4 9 10 13 </var>
    <var id="x101"> 0 3 4 13 </var>
    <var id="x102"> 0 1 9 10 13 </var>
    <var id="x103"> 0 1 </var>
    <var id="x104"> 0 9 10 13 </var>
    <var id="x105"> 0 1 3 4 10 </var>
  </variables>
  <constraints>
    <group>
      <allDifferent> %... </allDifferent>
      <args> x0 x1 x2 x3 x4 x5 x6 </args>
      <args> x7 x8 x9 x10 x11 x12 x13 </args>
      <args> x14 x15 x16 x17 x18 x19 x20 </args>
      <args> x21 x22 x23 x24 x25 x26 x27 x28 </args>
      <args> x29 x30 x31 x32 x33 x34 x35 </args>
      <args> x36 x37 x38 x39 x40 x41 x42 </args>
      <args> x43 x44 x45 x46 x47 x48 x49 </args>
      <args> x50 x51 x52 x53 x54 x55 x56 </args>
      <args> x57 x58 x59 x60 x61 x62 x63 </args>
      <args> x64 x65 x66 x67 x68 x69 x70 </args>
      <args> x71 x72 x73 x74 x75 x76 x77 </args>
      <args> x78 x79 x80 x81 x82 x83 x84 </args>
      <args> x85 x86 x87 x88 x89 x90 x91 </args>
      <args> x92 x93 x94 x95 x96 x97 x98 </args>
      <args> x99 x100 x101 x102 x103 x104 x105 </args>
      <args> x14 x29 x36 x57 x64 x71 x92 x99 </args>
      <args> x0 x7 x15 x21 x50 x65 x85 </args>
      <args> x1 x8 x43 x66 x78 x86 x93 </args>
      <args> x9 x16 x22 x30 x67 x72 x94 </args>
      <args> x37 x51 x73 x79 x87 x95 x100 </args>
      <args> x2 x10 x23 x58 x74 x80 x88 </args>
      <args> x31 x38 x44 x59 x68 x96 x101 </args>
      <args> x3 x17 x32 x60 x69 x89 x102 </args>
      <args> x4 x18 x39 x52 x75 x97 x103 </args>
      <args> x11 x24 x33 x40 x45 x61 x90 </args>
      <args> x12 x34 x41 x46 x53 x81 x104 </args>
      <args> x13 x19 x25 x47 x54 x82 x91 </args>
      <args> x5 x26 x55 x62 x76 x83 x105 </args>
      <args> x27 x35 x42 x48 x56 x63 x98 </args>
      <args> x6 x20 x28 x49 x70 x77 x84 </args>
    </group>
  </constraints>
</instance>

